Gurobi Optimizer version 9.0.1 build v9.0.1rc0 (linux64)
Optimize a model with 1042 rows, 174997 columns and 4623442 nonzeros
Model fingerprint: 0xefbc6bc9
Coefficient statistics:
  Matrix range     [1e+00, 1e+00]
  Objective range  [1e+00, 6e+01]
  Bounds range     [0e+00, 0e+00]
  RHS range        [1e+00, 1e+00]
Presolve removed 0 rows and 1968 columns
Presolve time: 3.10s
Presolved: 1042 rows, 173029 columns, 4573582 nonzeros
Ordering time: 0.01s

Barrier statistics:
 AA' NZ     : 4.105e+05
 Factor NZ  : 5.434e+05 (roughly 70 MBytes of memory)
 Factor Ops : 3.777e+08 (less than 1 second per iteration)
 Threads    : 1

                  Objective                Residual
Iter       Primal          Dual         Primal    Dual     Compl     Time
   0   5.80032219e+04  0.00000000e+00  1.17e+03 0.00e+00  1.23e+00     5s
   1   6.29366210e+03 -3.57571497e+02  1.17e+02 2.51e-14  1.28e-01     6s
   2   5.31049677e+02 -2.77779463e+02  8.21e+00 3.91e-14  1.07e-02     7s
   3   2.83765473e+02 -1.85485013e+02  3.43e+00 6.17e-14  5.15e-03     7s
   4   1.68125347e+02 -8.23882000e+01  9.35e-01 1.07e-13  2.05e-03     8s
   5   1.21046697e+02  1.31305069e+01  7.60e-02 2.12e-13  6.58e-04     9s
   6   1.04062611e+02  6.76686937e+01  8.64e-03 1.51e-13  2.13e-04    10s
   7   9.69152696e+01  7.76582407e+01  2.77e-03 1.62e-13  1.12e-04    11s
   8   9.28184000e+01  8.24366406e+01  8.95e-04 1.50e-13  6.02e-05    12s
   9   8.96741212e+01  8.50518246e+01  1.19e-04 1.59e-13  2.67e-05    13s
  10   8.80317180e+01  8.63151341e+01  1.92e-05 1.59e-13  9.93e-06    14s
  11   8.74073233e+01  8.65281297e+01  6.34e-06 1.88e-13  5.08e-06    15s
  12   8.69576513e+01  8.67205185e+01  5.78e-07 1.71e-13  1.37e-06    16s
  13   8.68671681e+01  8.67786556e+01  1.49e-07 2.29e-13  5.12e-07    17s
  14   8.68305995e+01  8.68011946e+01  2.24e-08 1.48e-13  1.70e-07    18s
  15   8.68256218e+01  8.68109280e+01  1.09e-08 1.36e-13  8.49e-08    19s
  16   8.68238259e+01  8.68155877e+01  6.97e-09 1.53e-13  4.76e-08    20s
  17   8.68219606e+01  8.68175389e+01  3.24e-09 1.48e-13  2.56e-08    21s
  18   8.68212561e+01  8.68188520e+01  1.94e-09 1.97e-13  1.39e-08    22s
  19   8.68206980e+01  8.68195516e+01  9.91e-10 1.83e-13  6.63e-09    22s
  20   8.68206516e+01  8.68197735e+01  2.99e-09 1.57e-13  5.07e-09    23s
  21   8.68202767e+01  8.68198843e+01  1.79e-09 1.32e-13  2.27e-09    24s
  22   8.68202175e+01  8.68199035e+01  3.44e-09 1.49e-13  1.82e-09    25s
  23   8.68201572e+01  8.68199177e+01  3.50e-09 1.28e-13  1.39e-09    26s
  24   8.68201037e+01  8.68200303e+01  1.59e-09 1.80e-13  4.24e-10    26s
  25   8.68200864e+01  8.68200548e+01  8.54e-10 1.53e-13  1.82e-10    27s
  26   8.68200834e+01  8.68200662e+01  7.20e-10 1.82e-13  9.85e-11    28s
  27   8.68200711e+01  8.68200680e+01  4.32e-09 2.35e-13  1.58e-11    29s
  28   8.68200689e+01  8.68200683e+01  1.21e-09 2.17e-13  2.56e-12    31s

Barrier solved model in 28 iterations and 30.53 seconds
Optimal objective 8.68200689e+01

Solver name: Gurobi
Solve time: 31.113907064
Termination status: OPTIMAL
Result count: 1
Primal status: FEASIBLE_POINT
Dual status: FEASIBLE_POINT
